Route #1: 10 46 7 44 27 15 39 24 
Route #2: 14 5 31 3 38 4 6 37 
Route #3: 21 28 2 41 35 32 30 42 22 29 
Route #4: 9 34 43 17 25 16 20 
Route #5: 45 26 19 36 13 12 
Route #6: 33 23 11 8 40 
Route #7: 18 
cost 955.258
